02 - Notes/04 - Advanced LP/02 - Feed Mix Problem/Model/feedMix.dat
#AMPL data file for the "Feed Mix" problem DSA/ISE 5113

data;

set I := corn limestone soybeans fishmeal;
set J := cattle sheep chicken;
set K := vitamins protein calcium fat;

#supply and cost of each ingredient
param:        s      c   :=
   corn       6000  .20
   limestone 10000  .12
   soybeans   4000  .24
   fishmeal   5000  .12;

#demand for the products
param  d := cattle 10000 
            sheep 6000 
            chicken 8000; 

#lower and upper bounds on nutrients
param:                l   u   := 
  [cattle,*]  vitamins 6   .  
              protein  6   . 
              calcium  7   .
              fat      4   8
  [sheep,*]   vitamins 6   .  
              protein  6   . 
              calcium  6   .
              fat      4   8
  [chicken,*] vitamins 4   6  
              protein  6   . 
              calcium  6   .
              fat      4   8;

param a:
            vitamins protein calcium fat :=
   corn        8       10      6      8
   limestone   6        5      10     6
   soybeans    10      12      6      6
   fishmeal    4       18      6      9;
